c {"clauses":8,"maxClauseSize":9,"minClauseSize":3,"totalLiterals":45,"variables":10}
p cnf 10 8
-1 -2 2 0
3 -4 4 5 3 5 0
4 -6 -6 -6 -7 8 9 0
9 -9 5 6 1 0
3 2 9 -9 2 3 0
3 6 -5 6 -6 10 1 -4 1 0
-5 -6 8 0
-9 5 -3 -3 -1 9 0
